mapa = [|
         9,9,9,9,9,9,9|
         9,8,8,1,8,8,9|
         9,8,2,8,2,8,9|
         9,8,8,8,8,8,9|
         9,8,9,8,9,8,9|
         9,8,8,8,8,8,9|
         9,9,9,9,9,9,9|];
dimx = 7;
dimy = 7;
filav = 2;
colav = 3;
